p cnf 37 270
1 2 -3 0
1 -2 3 0
-1 2 3 0
-1 -2 -3 0
4 -5 0
-4 5 0
1 6 7 8 9 10 -11 0
1 6 7 8 9 -10 11 0
1 6 7 8 -9 10 11 0
1 6 7 8 -9 -10 -11 0
1 6 7 -8 9 10 11 0
1 6 7 -8 9 -10 -11 0
1 6 7 -8 -9 10 -11 0
1 6 7 -8 -9 -10 11 0
1 6 -7 8 9 10 11 0
1 6 -7 8 9 -10 -11 0
1 6 -7 8 -9 10 -11 0
1 6 -7 8 -9 -10 11 0
1 6 -7 -8 9 10 -11 0
1 6 -7 -8 9 -10 11 0
1 6 -7 -8 -9 10 11 0
1 6 -7 -8 -9 -10 -11 0
1 -6 7 8 9 10 11 0
1 -6 7 8 9 -10 -11 0
1 -6 7 8 -9 10 -11 0
1 -6 7 8 -9 -10 11 0
1 -6 7 -8 9 10 -11 0
1 -6 7 -8 9 -10 11 0
1 -6 7 -8 -9 10 11 0
1 -6 7 -8 -9 -10 -11 0
1 -6 -7 8 9 10 -11 0
1 -6 -7 8 9 -10 11 0
1 -6 -7 8 -9 10 11 0
1 -6 -7 8 -9 -10 -11 0
1 -6 -7 -8 9 10 11 0
1 -6 -7 -8 9 -10 -11 0
1 -6 -7 -8 -9 10 -11 0
1 -6 -7 -8 -9 -10 11 0
-1 6 7 8 9 10 11 0
-1 6 7 8 9 -10 -11 0
-1 6 7 8 -9 10 -11 0
-1 6 7 8 -9 -10 11 0
-1 6 7 -8 9 10 -11 0
-1 6 7 -8 9 -10 11 0
-1 6 7 -8 -9 10 11 0
-1 6 7 -8 -9 -10 -11 0
-1 6 -7 8 9 10 -11 0
-1 6 -7 8 9 -10 11 0
-1 6 -7 8 -9 10 11 0
-1 6 -7 8 -9 -10 -11 0
-1 6 -7 -8 9 10 11 0
-1 6 -7 -8 9 -10 -11 0
-1 6 -7 -8 -9 10 -11 0
-1 6 -7 -8 -9 -10 11 0
-1 -6 7 8 9 10 -11 0
-1 -6 7 8 9 -10 11 0
-1 -6 7 8 -9 10 11 0
-1 -6 7 8 -9 -10 -11 0
-1 -6 7 -8 9 10 11 0
-1 -6 7 -8 9 -10 -11 0
-1 -6 7 -8 -9 10 -11 0
-1 -6 7 -8 -9 -10 11 0
-1 -6 -7 8 9 10 11 0
-1 -6 -7 8 9 -10 -11 0
-1 -6 -7 8 -9 10 -11 0
-1 -6 -7 8 -9 -10 11 0
-1 -6 -7 -8 9 10 -11 0
-1 -6 -7 -8 9 -10 11 0
-1 -6 -7 -8 -9 10 11 0
-1 -6 -7 -8 -9 -10 -11 0
12 13 14 15 0
12 13 -14 -15 0
12 -13 14 -15 0
12 -13 -14 15 0
-12 13 14 -15 0
-12 13 -14 15 0
-12 -13 14 15 0
-12 -13 -14 -15 0
2 6 16 17 18 -19 0
2 6 16 17 -18 19 0
2 6 16 -17 18 19 0
2 6 16 -17 -18 -19 0
2 6 -16 17 18 19 0
2 6 -16 17 -18 -19 0
2 6 -16 -17 18 -19 0
2 6 -16 -17 -18 19 0
2 -6 16 17 18 19 0
2 -6 16 17 -18 -19 0
2 -6 16 -17 18 -19 0
2 -6 16 -17 -18 19 0
2 -6 -16 17 18 -19 0
2 -6 -16 17 -18 19 0
2 -6 -16 -17 18 19 0
2 -6 -16 -17 -18 -19 0
-2 6 16 17 18 19 0
-2 6 16 17 -18 -19 0
-2 6 16 -17 18 -19 0
-2 6 16 -17 -18 19 0
-2 6 -16 17 18 -19 0
-2 6 -16 17 -18 19 0
-2 6 -16 -17 18 19 0
-2 6 -16 -17 -18 -19 0
-2 -6 16 17 18 -19 0
-2 -6 16 17 -18 19 0
-2 -6 16 -17 18 19 0
-2 -6 16 -17 -18 -19 0
-2 -6 -16 17 18 19 0
-2 -6 -16 17 -18 -19 0
-2 -6 -16 -17 18 -19 0
-2 -6 -16 -17 -18 19 0
7 12 -20 0
7 -12 20 0
-7 12 20 0
-7 -12 -20 0
8 13 21 -22 0
8 13 -21 22 0
8 -13 21 22 0
8 -13 -21 -22 0
-8 13 21 22 0
-8 13 -21 -22 0
-8 -13 21 -22 0
-8 -13 -21 22 0
9 23 24 0
9 -23 -24 0
-9 23 -24 0
-9 -23 24 0
14 21 -25 0
14 -21 25 0
-14 21 25 0
-14 -21 -25 0
4 10 16 23 26 27 -28 0
4 10 16 23 26 -27 28 0
4 10 16 23 -26 27 28 0
4 10 16 23 -26 -27 -28 0
4 10 16 -23 26 27 28 0
4 10 16 -23 26 -27 -28 0
4 10 16 -23 -26 27 -28 0
4 10 16 -23 -26 -27 28 0
4 10 -16 23 26 27 28 0
4 10 -16 23 26 -27 -28 0
4 10 -16 23 -26 27 -28 0
4 10 -16 23 -26 -27 28 0
4 10 -16 -23 26 27 -28 0
4 10 -16 -23 26 -27 28 0
4 10 -16 -23 -26 27 28 0
4 10 -16 -23 -26 -27 -28 0
4 -10 16 23 26 27 28 0
4 -10 16 23 26 -27 -28 0
4 -10 16 23 -26 27 -28 0
4 -10 16 23 -26 -27 28 0
4 -10 16 -23 26 27 -28 0
4 -10 16 -23 26 -27 28 0
4 -10 16 -23 -26 27 28 0
4 -10 16 -23 -26 -27 -28 0
4 -10 -16 23 26 27 -28 0
4 -10 -16 23 26 -27 28 0
4 -10 -16 23 -26 27 28 0
4 -10 -16 23 -26 -27 -28 0
4 -10 -16 -23 26 27 28 0
4 -10 -16 -23 26 -27 -28 0
4 -10 -16 -23 -26 27 -28 0
4 -10 -16 -23 -26 -27 28 0
-4 10 16 23 26 27 28 0
-4 10 16 23 26 -27 -28 0
-4 10 16 23 -26 27 -28 0
-4 10 16 23 -26 -27 28 0
-4 10 16 -23 26 27 -28 0
-4 10 16 -23 26 -27 28 0
-4 10 16 -23 -26 27 28 0
-4 10 16 -23 -26 -27 -28 0
-4 10 -16 23 26 27 -28 0
-4 10 -16 23 26 -27 28 0
-4 10 -16 23 -26 27 28 0
-4 10 -16 23 -26 -27 -28 0
-4 10 -16 -23 26 27 28 0
-4 10 -16 -23 26 -27 -28 0
-4 10 -16 -23 -26 27 -28 0
-4 10 -16 -23 -26 -27 28 0
-4 -10 16 23 26 27 -28 0
-4 -10 16 23 26 -27 28 0
-4 -10 16 23 -26 27 28 0
-4 -10 16 23 -26 -27 -28 0
-4 -10 16 -23 26 27 28 0
-4 -10 16 -23 26 -27 -28 0
-4 -10 16 -23 -26 27 -28 0
-4 -10 16 -23 -26 -27 28 0
-4 -10 -16 23 26 27 28 0
-4 -10 -16 23 26 -27 -28 0
-4 -10 -16 23 -26 27 -28 0
-4 -10 -16 23 -26 -27 28 0
-4 -10 -16 -23 26 27 -28 0
-4 -10 -16 -23 26 -27 28 0
-4 -10 -16 -23 -26 27 28 0
-4 -10 -16 -23 -26 -27 -28 0
29 -30 0
-29 30 0
26 31 32 0
26 -31 -32 0
-26 31 -32 0
-26 -31 32 0
17 -29 0
-17 29 0
27 -33 0
-27 33 0
34 -35 0
-34 35 0
28 30 -36 0
28 -30 36 0
-28 30 36 0
-28 -30 -36 0
3 15 18 22 33 0
3 15 18 -22 -33 0
3 15 -18 22 -33 0
3 15 -18 -22 33 0
3 -15 18 22 -33 0
3 -15 18 -22 33 0
3 -15 -18 22 33 0
3 -15 -18 -22 -33 0
-3 15 18 22 -33 0
-3 15 18 -22 33 0
-3 15 -18 22 33 0
-3 15 -18 -22 -33 0
-3 -15 18 22 33 0
-3 -15 18 -22 -33 0
-3 -15 -18 22 -33 0
-3 -15 -18 -22 33 0
5 19 20 24 34 -36 0
5 19 20 24 -34 36 0
5 19 20 -24 34 36 0
5 19 20 -24 -34 -36 0
5 19 -20 24 34 36 0
5 19 -20 24 -34 -36 0
5 19 -20 -24 34 -36 0
5 19 -20 -24 -34 36 0
5 -19 20 24 34 36 0
5 -19 20 24 -34 -36 0
5 -19 20 -24 34 -36 0
5 -19 20 -24 -34 36 0
5 -19 -20 24 34 -36 0
5 -19 -20 24 -34 36 0
5 -19 -20 -24 34 36 0
5 -19 -20 -24 -34 -36 0
-5 19 20 24 34 36 0
-5 19 20 24 -34 -36 0
-5 19 20 -24 34 -36 0
-5 19 20 -24 -34 36 0
-5 19 -20 24 34 -36 0
-5 19 -20 24 -34 36 0
-5 19 -20 -24 34 36 0
-5 19 -20 -24 -34 -36 0
-5 -19 20 24 34 -36 0
-5 -19 20 24 -34 36 0
-5 -19 20 -24 34 36 0
-5 -19 20 -24 -34 -36 0
-5 -19 -20 24 34 36 0
-5 -19 -20 24 -34 -36 0
-5 -19 -20 -24 34 -36 0
-5 -19 -20 -24 -34 36 0
25 31 -37 0
25 -31 37 0
-25 31 37 0
-25 -31 -37 0
11 32 35 -37 0
11 32 -35 37 0
11 -32 35 37 0
11 -32 -35 -37 0
-11 32 35 37 0
-11 32 -35 -37 0
-11 -32 35 -37 0
-11 -32 -35 37 0
